62 83 77 51 74 7 56 29 10 82 94 16 54 41 14 96 6 70 88 87 55 57 81 93 47 36 65 8 40 19 91 58 73 79 71 67 13 27 63 5 69 92 33 98 35 61 24 80 52 15 90 75 32 99 84 20 4 0 44 28 34 42 37 53 31 18 3 60 30 22 26 9 46 12 17 50 95 1 49 76 89 97 86 64 72 78 21 45 48 39 2 66 59 11 43 38 85 25 23 68  
62 83 77 51 74 7 56 29 55 82 94 16 14 54 96 41 99 70 88 87 98 57 81 93 24 6 10 1 36 65 8 40 19 91 58 73 79 71 67 13 27 63 5 69 92 9 61 80 33 15 37 90 75 32 20 4 0 52 53 35 31 12 72 17 50 46 26 66 85 95 86 21 64 25 47 84 2 76 23 30 38 28 68 43 18 39 78 44 49 59 48 60 45 11 97 3 34 22 42 89  
62 83 77 51 74 7 56 29 10 82 16 14 94 54 96 41 6 70 88 87 55 57 81 93 1 72 65 8 40 19 91 58 73 79 71 47 67 13 27 63 5 69 92 33 98 9 36 80 61 99 84 15 24 52 90 75 32 20 4 49 37 53 2 31 12 17 50 46 26 30 85 95 86 21 64 25 76 23 0 35 66 38 28 44 34 42 97 3 60 22 68 89 18 78 45 48 39 59 11 43  
62 83 77 51 74 7 56 29 10 82 16 14 94 54 96 41 6 70 88 87 55 57 81 93 1 36 65 8 40 19 91 58 73 79 71 67 72 27 63 5 69 92 13 9 98 84 61 99 80 33 15 24 52 90 75 32 20 4 0 49 53 35 31 12 17 50 46 26 66 85 95 86 21 64 25 76 23 30 38 18 34 44 42 28 3 60 22 68 37 2 89 97 78 45 48 39 59 11 43 47  
62 83 77 51 74 7 56 29 10 82 16 14 94 54 96 41 6 70 88 87 55 57 81 93 1 65 8 40 19 91 58 73 79 71 47 67 13 27 63 5 69 92 84 98 9 61 99 80 33 15 31 75 24 52 90 18 32 20 4 0 49 53 35 12 17 50 46 26 66 85 95 86 21 64 25 76 23 30 38 28 44 34 42 3 60 22 68 37 2 89 97 72 78 45 48 39 36 11 59 43  
62 83 77 51 74 7 56 29 10 82 16 14 94 54 96 41 6 70 88 87 55 57 81 93 47 36 65 8 40 19 91 58 73 79 71 67 13 27 63 5 69 92 33 98 9 61 24 80 52 15 90 75 32 99 76 20 4 0 49 53 35 31 12 17 50 46 26 66 85 95 86 21 64 25 84 23 30 38 28 44 34 42 18 3 60 22 97 37 2 89 68 72 78 45 48 39 59 11 43 1  
62 83 77 51 74 7 56 29 10 82 16 14 94 54 96 41 6 70 88 87 55 57 81 93 1 36 65 8 40 19 91 58 73 79 71 67 72 27 63 5 69 92 13 12 98 9 61 99 80 33 15 24 52 90 75 32 20 4 0 49 53 35 31 84 17 50 46 26 66 85 95 86 21 64 25 76 23 30 38 28 34 44 42 18 3 60 22 68 37 2 89 97 78 45 48 39 59 11 43 47  
62 83 77 51 74 7 56 29 10 82 86 54 94 14 96 41 6 70 88 87 55 57 81 93 1 36 65 8 40 19 91 58 73 79 71 67 72 15 63 5 69 92 33 80 9 61 98 99 27 24 37 90 75 32 20 4 0 52 53 35 31 12 17 85 95 50 46 26 66 16 21 64 25 47 84 2 76 23 30 38 28 68 13 43 18 39 78 44 49 59 48 97 45 11 60 34 3 22 42 89  
62 83 77 51 74 7 56 29 10 82 16 14 94 54 96 41 6 70 88 87 55 57 81 93 1 36 65 92 40 19 91 58 73 79 71 67 13 27 63 5 69 8 99 98 9 61 80 33 15 24 37 72 90 75 32 20 4 0 52 53 35 31 12 17 50 46 26 66 85 95 86 21 64 25 47 84 2 76 23 30 38 28 44 43 18 39 78 68 49 59 48 97 45 11 60 34 3 22 42 89  
62 83 77 51 74 7 56 29 10 82 16 14 94 54 96 41 6 70 88 87 55 57 81 93 1 36 65 8 40 19 91 58 73 79 71 67 72 27 63 5 69 92 33 98 9 61 80 99 15 24 13 90 75 32 20 4 0 52 53 35 31 12 17 50 46 26 66 85 95 47 84 23 49 86 21 64 25 76 18 30 38 28 44 34 42 3 60 22 68 37 2 89 97 78 45 48 39 11 59 43  
62 83 77 51 74 7 56 29 10 82 16 14 41 54 96 94 6 70 88 87 55 57 81 93 1 65 8 40 19 91 58 73 79 71 47 67 13 27 63 5 69 92 84 98 9 61 99 80 33 15 31 75 24 52 90 18 32 20 64 0 49 53 35 12 17 50 46 26 66 85 95 86 21 4 25 76 23 30 38 28 44 34 42 72 36 97 3 22 68 37 2 89 60 78 45 48 39 59 11 43  
62 83 77 51 74 7 56 29 10 82 94 16 54 41 14 96 6 70 88 87 55 57 81 93 35 36 65 8 40 19 91 58 73 79 71 67 13 27 63 5 69 92 33 98 47 61 24 80 52 15 90 75 32 99 84 20 4 0 44 28 34 42 37 53 31 18 3 60 30 22 26 9 46 12 17 50 95 1 49 76 89 97 86 64 72 78 43 45 48 39 2 66 59 11 21 38 85 25 23 68  
